11 0 3 8 9 5 10 6 7 2 1 4 0 182
999999999 32 100 27 5 97 12 74 33 75 41 
32 999999999 10 66 7 95 66 41 64 83 92 
100 10 999999999 23 88 45 89 24 70 100 33 
27 66 23 999999999 81 79 31 58 4 69 80 
5 7 88 81 999999999 28 64 32 58 4 59 
97 95 45 79 28 999999999 53 82 79 2 53 
12 66 89 31 64 53 999999999 10 57 69 8 
74 41 24 58 32 82 10 999999999 52 79 52 
33 64 70 4 58 79 57 52 999999999 32 83 
75 83 100 69 4 2 69 79 32 999999999 91 
41 92 33 80 59 53 8 52 83 91 999999999 
